Version identifier: 22.1.0.0 | 2022-03-09 | 1a383f8ce
CPXPARAM_Threads                                 1
CPXPARAM_MIP_Strategy_VariableSelect             3
CPXPARAM_TimeLimit                               600
Tried aggregator 1 time.
MIP Presolve eliminated 24 rows and 0 columns.
MIP Presolve modified 5 coefficients.
Reduced MIP has 3301 rows, 7501 columns, and 137614 nonzeros.
Reduced MIP has 7500 binaries, 0 generals, 0 SOSs, and 0 indicators.
Presolve time = 0.05 sec. (44.34 ticks)
Found incumbent of value 23.000000 after 0.12 sec. (100.33 ticks)
Probing time = 0.01 sec. (9.55 ticks)
Tried aggregator 1 time.
Detecting symmetries...
Reduced MIP has 3301 rows, 7501 columns, and 137614 nonzeros.
Reduced MIP has 7500 binaries, 0 generals, 0 SOSs, and 0 indicators.
Presolve time = 0.06 sec. (54.51 ticks)
Probing time = 0.01 sec. (9.55 ticks)
Clique table members: 302.
MIP emphasis: balance optimality and feasibility.
MIP search method: dynamic search.
Parallel mode: none, using 1 thread.
Root relaxation solution time = 0.16 sec. (148.31 ticks)

        Nodes                                         Cuts/
   Node  Left     Objective  IInf  Best Integer    Best Bound    ItCnt     Gap

*     0+    0                           23.0000        0.0000           100.00%
      0     0        0.0000   301       23.0000        0.0000     1052  100.00%
*     0+    0                            1.0000        0.0000           100.00%
*     0+    0                            0.0000        0.0000             0.00%
      0     0        cutoff              0.0000        0.0000     1052    0.00%
Elapsed time = 0.95 sec. (961.42 ticks, tree = 0.01 MB, solutions = 3)

Root node processing (before b&c):
  Real time             =    0.95 sec. (961.75 ticks)
Sequential b&c:
  Real time             =    0.00 sec. (0.00 ticks)
                          ------------
Total (root+branch&cut) =    0.95 sec. (961.75 ticks)
Primal:	0
Dual:	0
Status:	Optimal
Time:	0.98
Sequence:
	14
	23
	23
	16
	16
	4
	12
	8
	4
	12
	12
	4
	12
	2
	4
	16
	2
	4
	13
	2
	4
	10
	9
	4
	0
	21
	4
	23
	14
	4
	0
	12
	0
	12
	16
	7
	23
	20
	14
	2
	23
	0
	23
	2
	17
	0
	10
	6
	0
	4
	16
	11
	15
	8
	0
	0
	4
	14
	0
	4
	23
	0
	6
	15
	0
	8
	22
	23
	15
	7
	24
	7
	21
	2
	6
	12
	4
	3
	23
	20
	10
	13
	2
	20
	2
	6
	13
	0
	4
	23
	2
	2
	16
	5
	0
	10
	2
	13
	15
	24
	10
	0
	4
	14
	24
	15
	16
	10
	23
	13
	23
	20
	23
	12
	0
	0
	2
	10
	2
	20
	0
	2
	23
	2
	16
	0
	14
	12
	24
	21
	8
	13
	23
	20
	17
	14
	12
	2
	20
	23
	13
	15
	19
	16
	6
	18
	23
	2
	4
	19
	3
	2
	23
	4
	16
	19
	0
	17
	14
	4
	10
	2
	0
	2
	4
	0
	2
	6
	23
	20
	22
	10
	12
	22
	11
	2
	24
	0
	23
	15
	23
	12
	2
	4
	17
	6
	2
	14
	0
	20
	0
	8
	23
	13
	15
	23
	10
	23
	8
	21
	13
	0
	12
	21
	8
	20
	0
	7
	2
	8
	3
	20
	2
	12
	0
	10
	0
	2
	6
	8
	4
	2
	13
	20
	0
	0
	4
	9
	10
	23
	14
	12
	4
	17
	13
	23
	17
	4
	0
	1
	4
	0
	14
	0
	6
	2
	12
	4
	2
	13
	24
	12
	2
	0
	6
	20
	2
	0
	14
	0
	23
	20
	2
	2
	20
	19
	11
	7
	8
	2
	13
	17
	2
	19
	10
	23
	20
	14
	8
	0
	0
	14
	4
	22
	16
	5
	4
	19
	23
	6
	8
	0
	4
	0
	0
	13
	22
	12
	12
	12
